183 166 31 180 74 64 94 105 136 13 129 199 185 121 115 15 26 40 37 108 111 154 98 113 43 88 24 55 110 191 118 189 48 172 125 137 174 195 141 193 152 71 6 30 12 99 177 103 85 95 76 150 84 60 101 5 59 178 42 51 158 22 173 123 188 67 73 146 176 83 164 169 167 104 161 179 182 53 17 0 7 186 147 93 49 107 184 128 127 119 16 114 149 122 57 75 32 8 52 25 175 112 46 132 23 39 70 155 86 18 21 102 197 96 65 165 162 143 38 14 92 181 117 135 44 54 142 36 2 3 187 4 130 1 145 196 28 69 148 171 100 126 133 190 87 72 34 61 116 63 9 68 144 50 156 89 194 56 109 10 153 90 78 58 81 47 77 131 19 62 11 27 140 134 79 151 168 159 106 160 41 192 120 138 97 139 66 157 45 163 20 82 124 80 91 170 35 198 33 29